p cnf 14 64
2 -6 -9 0
6 11 13 0
3 6 -12 0
6 7 -14 0
-3 9 -14 0
-5 7 12 0
-2 -5 6 0
-1 6 -9 0
-6 13 14 0
-4 8 -12 0
7 10 -11 0
-6 7 14 0
2 -8 -13 0
6 7 8 0
1 -6 9 0
-7 12 -14 0
1 -10 12 0
4 8 -11 0
1 4 14 0
-4 6 -9 0
-6 -10 -13 0
3 7 12 0
8 -11 14 0
-1 2 9 0
2 -7 8 0
2 -3 -14 0
2 -7 -9 0
3 -5 -13 0
-7 8 -9 0
-4 -8 12 0
6 -9 12 0
8 11 -14 0
-2 9 -13 0
-1 -4 -5 0
-1 -5 -9 0
4 -5 7 0
-5 9 12 0
-1 -2 10 0
-7 -11 -14 0
-4 7 -8 0
-2 3 -7 0
3 -4 13 0
-1 -2 -6 0
-3 -5 -10 0
-1 11 13 0
-1 -11 12 0
-8 -11 -12 0
3 5 6 0
-2 3 9 0
3 4 8 0
-3 11 -14 0
5 13 14 0
3 -5 -9 0
6 -10 -12 0
-4 11 12 0
2 -3 12 0
1 8 9 0
-1 3 14 0
3 5 -7 0
-2 9 -12 0
-3 -7 -13 0
8 -10 -13 0
3 -8 14 0
-6 -9 13 0
